p cnf 69 130
-1 10 0 
1 69 0 
-10 -11 12 0 
-10 11 14 0 
-11 8 0 
-12 -13 0 
-14 -15 17 0 
-14 15 69 0 
-15 16 0 
-15 2 0 
-16 4 0 
-1 2 6 0 
-17 -18 65 0 
-17 18 69 0 
-18 19 0 
-18 63 0 
-19 20 0 
-19 61 0 
-20 21 0 
-20 59 0 
-21 22 0 
-21 57 0 
-22 23 0 
-22 55 0 
-23 24 0 
-23 53 0 
-24 25 0 
-24 51 0 
-25 26 0 
-25 49 0 
-26 27 0 
-26 47 0 
-2 -3 0 
-27 28 0 
-27 45 0 
-28 29 0 
-28 43 0 
-29 30 0 
-29 41 0 
-30 31 0 
-30 39 0 
-31 32 0 
-31 37 0 
-32 33 0 
-32 35 0 
-33 34 0 
-35 36 0 
-3 -4 5 0 
-3 -5 4 0 
-37 38 0 
-39 40 0 
-41 42 0 
-43 44 0 
-45 46 0 
-47 48 0 
-49 50 0 
-51 52 0 
-53 54 0 
-55 56 0 
-57 58 0 
-59 60 0 
-61 62 0 
-63 64 0 
-65 -13 66 0 
-65 -66 13 0 
-66 67 0 
-6 -7 0 
-67 -68 0 
-69 -13 68 0 
-69 -68 13 0 
-7 -9 8 0 
-7 -8 9 0 
10 -11 -12 0 
10 -12 -14 0 
10 11 -14 0 
11 -8 0 
12 13 0 
14 -15 -17 0 
14 -17 -69 0 
14 15 -69 0 
15 -2 -16 0 
16 -4 0 
1 -2 0 
1 -6 0 
17 -18 -65 0 
17 -65 -69 0 
17 18 -69 0 
18 -19 -63 0 
19 -20 -61 0 
20 -21 -59 0 
21 -22 -57 0 
22 -23 -55 0 
23 -24 -53 0 
24 -25 -51 0 
25 -26 -49 0 
26 -27 -47 0 
2 3 0 
27 -28 -45 0 
28 -29 -43 0 
29 -30 -41 0 
30 -31 -39 0 
31 -32 -37 0 
32 -33 -35 0 
33 -34 0 
35 -36 0 
3 -4 -5 0 
3 4 5 0 
37 -38 0 
39 -40 0 
41 -42 0 
43 -44 0 
45 -46 0 
47 -48 0 
49 -50 0 
51 -52 0 
53 -54 0 
55 -56 0 
57 -58 0 
59 -60 0 
61 -62 0 
63 -64 0 
65 -13 -66 0 
65 13 66 0 
66 -67 0 
6 7 0 
67 68 0 
69 -13 -68 0 
69 13 68 0 
7 -8 -9 0 
7 8 9 0 
